presolving:
   (0.1s) running MILP presolver
   (0.2s) MILP presolver found nothing
(round 1, exhaustive) 0 del vars, 0 del conss, 0 add conss, 0 chg bounds, 0 chg sides, 0 chg coeffs, 278 upgd conss, 0 impls, 126 clqs
   (0.4s) probing: 51/19304 (0.3%) - 0 fixings, 0 aggregations, 0 implications, 0 bound changes
   (0.4s) probing aborted: 50/50 successive totally useless probings
   (0.4s) symmetry computation started: requiring (bin +, int -, cont +), (fixed: bin -, int +, cont -)
   (0.4s) no symmetry present
presolving (2 rounds: 2 fast, 2 medium, 2 exhaustive):
 0 deleted vars, 0 deleted constraints, 0 added constraints, 0 tightened bounds, 0 added holes, 0 changed sides, 0 changed coefficients
 0 implications, 19278 cliques
presolved problem has 19304 variables (19304 bin, 0 int, 0 impl, 0 cont) and 278 constraints
    152 constraints of type <knapsack>
    126 constraints of type <setppc>
transformed objective value is always integral (scale: 1)
Presolving Time: 0.39

 time | node  | left  |LP iter|LP it/n|mem/heur|mdpt |vars |cons |rows |cuts |sepa|confs|strbr|  dualbound   | primalbound  |  gap   | compl. 
p 0.6s|     1 |     0 |     0 |     - |  clique|   0 |  19k| 278 | 278 |   0 |  0 |   0 |   0 | 0.000000e+00 | 1.096500e+04 |    Inf | unknown
p 0.8s|     1 |     0 |     0 |     - | vbounds|   0 |  19k| 278 | 278 |   0 |  0 |   0 |   0 | 0.000000e+00 | 8.381000e+03 |    Inf | unknown
  1.4s|     1 |     0 |   985 |     - |   190M |   0 |  19k| 390 | 278 |   0 |  0 | 113 |   0 | 1.920473e+03 | 8.381000e+03 | 336.40%| unknown
r 1.5s|     1 |     0 |   985 |     - |shifting|   0 |  19k| 390 | 278 |   0 |  0 | 113 |   0 | 1.920473e+03 | 4.276000e+03 | 122.65%| unknown
  1.9s|     1 |     0 |  1240 |     - |   194M |   0 |  19k| 390 | 323 |  45 |  1 | 113 |   0 | 2.047962e+03 | 4.276000e+03 | 108.79%| unknown
  2.1s|     1 |     0 |  1515 |     - |   197M |   0 |  19k| 390 | 374 |  96 |  2 | 113 |   0 | 2.114790e+03 | 4.276000e+03 | 102.19%| unknown
  2.4s|     1 |     0 |  1833 |     - |   201M |   0 |  19k| 390 | 420 | 142 |  3 | 113 |   0 | 2.152518e+03 | 4.276000e+03 |  98.65%| unknown
  2.6s|     1 |     0 |  2143 |     - |   202M |   0 |  19k| 390 | 471 | 193 |  4 | 113 |   0 | 2.180598e+03 | 4.276000e+03 |  96.09%| unknown
  3.0s|     1 |     0 |  2684 |     - |   202M |   0 |  19k| 390 | 515 | 237 |  5 | 113 |   0 | 2.199109e+03 | 4.276000e+03 |  94.44%| unknown
r 3.0s|     1 |     0 |  2684 |     - |rounding|   0 |  19k| 389 | 515 | 237 |  5 | 113 |   0 | 2.199109e+03 | 4.222000e+03 |  91.99%| unknown
r 3.0s|     1 |     0 |  2684 |     - |shifting|   0 |  19k| 389 | 515 | 237 |  5 | 113 |   0 | 2.199109e+03 | 4.128000e+03 |  87.71%| unknown
  3.5s|     1 |     0 |  3314 |     - |   205M |   0 |  19k| 389 | 557 | 279 |  6 | 113 |   0 | 2.221440e+03 | 4.128000e+03 |  85.83%| unknown
i 3.5s|     1 |     0 |  3314 |     - |  oneopt|   0 |  19k| 389 | 557 | 279 |  6 | 113 |   0 | 2.221440e+03 | 3.800000e+03 |  71.06%| unknown
  3.9s|     1 |     0 |  3967 |     - |   206M |   0 |  19k| 389 | 603 | 325 |  7 | 113 |   0 | 2.234775e+03 | 3.800000e+03 |  70.04%| unknown
r 3.9s|     1 |     0 |  3967 |     - |shifting|   0 |  19k| 389 | 603 | 325 |  7 | 113 |   0 | 2.234775e+03 | 3.788000e+03 |  69.50%| unknown
 time | node  | left  |LP iter|LP it/n|mem/heur|mdpt |vars |cons |rows |cuts |sepa|confs|strbr|  dualbound   | primalbound  |  gap   | compl. 
i 4.0s|     1 |     0 |  3967 |     - |  oneopt|   0 |  19k| 389 | 603 | 325 |  7 | 113 |   0 | 2.234775e+03 | 3.670000e+03 |  64.22%| unknown
  4.5s|     1 |     0 |  4752 |     - |   206M |   0 |  19k| 389 | 646 | 368 |  8 | 113 |   0 | 2.248768e+03 | 3.670000e+03 |  63.20%| unknown
r 4.5s|     1 |     0 |  4752 |     - |rounding|   0 |  19k| 389 | 646 | 368 |  8 | 113 |   0 | 2.248768e+03 | 3.644000e+03 |  62.04%| unknown
i 4.5s|     1 |     0 |  4752 |     - |  oneopt|   0 |  19k| 389 | 646 | 368 |  8 | 113 |   0 | 2.248768e+03 | 3.622000e+03 |  61.07%| unknown
  4.9s|     1 |     0 |  5341 |     - |   208M |   0 |  19k| 389 | 692 | 414 |  9 | 113 |   0 | 2.256981e+03 | 3.622000e+03 |  60.48%| unknown
  5.4s|     1 |     0 |  5823 |     - |   208M |   0 |  19k| 389 | 730 | 452 | 10 | 113 |   0 | 2.264206e+03 | 3.622000e+03 |  59.97%| unknown
  5.8s|     1 |     0 |  6478 |     - |   208M |   0 |  19k| 389 | 772 | 494 | 11 | 113 |   0 | 2.272419e+03 | 3.622000e+03 |  59.39%| unknown
  6.3s|     1 |     0 |  7029 |     - |   208M |   0 |  19k| 389 | 802 | 524 | 12 | 113 |   0 | 2.279633e+03 | 3.622000e+03 |  58.89%| unknown
  6.8s|     1 |     0 |  7542 |     - |   208M |   0 |  19k| 389 | 832 | 554 | 13 | 113 |   0 | 2.285136e+03 | 3.622000e+03 |  58.50%| unknown
  7.2s|     1 |     0 |  7939 |     - |   210M |   0 |  19k| 389 | 866 | 588 | 14 | 113 |   0 | 2.287808e+03 | 3.622000e+03 |  58.32%| unknown
r 7.2s|     1 |     0 |  7939 |     - |rounding|   0 |  19k| 389 | 866 | 588 | 14 | 113 |   0 | 2.287808e+03 | 3.534000e+03 |  54.47%| unknown
r 7.2s|     1 |     0 |  7939 |     - |shifting|   0 |  19k| 389 | 866 | 588 | 14 | 113 |   0 | 2.287808e+03 | 3.433000e+03 |  50.06%| unknown
  7.5s|     1 |     0 |  8189 |     - |   211M |   0 |  19k| 389 | 895 | 617 | 15 | 113 |   0 | 2.290468e+03 | 3.433000e+03 |  49.88%| unknown
i 7.5s|     1 |     0 |  8189 |     - |  oneopt|   0 |  19k| 389 | 895 | 617 | 15 | 113 |   0 | 2.290468e+03 | 3.144000e+03 |  37.26%| unknown
  7.8s|     1 |     0 |  8537 |     - |   211M |   0 |  19k| 389 | 916 | 638 | 16 | 113 |   0 | 2.291970e+03 | 3.144000e+03 |  37.17%| unknown
 time | node  | left  |LP iter|LP it/n|mem/heur|mdpt |vars |cons |rows |cuts |sepa|confs|strbr|  dualbound   | primalbound  |  gap   | compl. 
  8.1s|     1 |     0 |  8717 |     - |   211M |   0 |  19k| 389 | 932 | 654 | 17 | 113 |   0 | 2.292784e+03 | 3.144000e+03 |  37.13%| unknown
  8.2s|     1 |     0 |  8842 |     - |   211M |   0 |  19k| 389 | 943 | 665 | 18 | 113 |   0 | 2.293107e+03 | 3.144000e+03 |  37.11%| unknown
r 8.2s|     1 |     0 |  8842 |     - |rounding|   0 |  19k| 389 | 943 | 665 | 18 | 113 |   0 | 2.293107e+03 | 3.120000e+03 |  36.06%| unknown
r 8.2s|     1 |     0 |  8842 |     - |shifting|   0 |  19k| 389 | 943 | 665 | 18 | 113 |   0 | 2.293107e+03 | 3.115000e+03 |  35.84%| unknown
  8.4s|     1 |     0 |  8910 |     - |   211M |   0 |  19k| 389 | 951 | 673 | 19 | 113 |   0 | 2.293339e+03 | 3.115000e+03 |  35.83%| unknown
i 8.4s|     1 |     0 |  8910 |     - |  oneopt|   0 |  19k| 389 | 951 | 673 | 19 | 113 |   0 | 2.293339e+03 | 3.011000e+03 |  31.29%| unknown
  8.6s|     1 |     0 |  8991 |     - |   212M |   0 |  19k| 389 | 943 | 677 | 20 | 113 |   0 | 2.293422e+03 | 3.011000e+03 |  31.29%| unknown
r 8.7s|     1 |     0 |  8991 |     - |rounding|   0 |  19k| 389 | 943 | 677 | 20 | 113 |   0 | 2.293422e+03 | 2.994000e+03 |  30.55%| unknown
r 8.7s|     1 |     0 |  8991 |     - |shifting|   0 |  19k| 389 | 943 | 677 | 20 | 113 |   0 | 2.293422e+03 | 2.972000e+03 |  29.59%| unknown
  8.9s|     1 |     0 |  9235 |     - |   212M |   0 |  19k| 389 | 947 | 681 | 21 | 113 |   0 | 2.294574e+03 | 2.972000e+03 |  29.52%| unknown
  9.2s|     1 |     0 |  9370 |     - |   212M |   0 |  19k| 389 | 957 | 691 | 22 | 113 |   0 | 2.294811e+03 | 2.972000e+03 |  29.51%| unknown
  9.3s|     1 |     0 |  9423 |     - |   212M |   0 |  19k| 389 | 963 | 697 | 23 | 113 |   0 | 2.294905e+03 | 2.972000e+03 |  29.50%| unknown
r 9.4s|     1 |     0 |  9423 |     - |rounding|   0 |  19k| 389 | 963 | 697 | 23 | 113 |   0 | 2.294905e+03 | 2.943000e+03 |  28.24%| unknown
r 9.4s|     1 |     0 |  9423 |     - |shifting|   0 |  19k| 389 | 963 | 697 | 23 | 113 |   0 | 2.294905e+03 | 2.921000e+03 |  27.28%| unknown
  9.4s|     1 |     0 |  9477 |     - |   212M |   0 |  19k| 389 | 965 | 699 | 24 | 113 |   0 | 2.295122e+03 | 2.921000e+03 |  27.27%| unknown
 time | node  | left  |LP iter|LP it/n|mem/heur|mdpt |vars |cons |rows |cuts |sepa|confs|strbr|  dualbound   | primalbound  |  gap   | compl. 
  9.7s|     1 |     0 |  9719 |     - |   212M |   0 |  19k| 389 | 974 | 708 | 25 | 113 |   0 | 2.295461e+03 | 2.921000e+03 |  27.25%| unknown
  9.9s|     1 |     0 |  9778 |     - |   212M |   0 |  19k| 389 | 934 | 712 | 26 | 113 |   0 | 2.295529e+03 | 2.921000e+03 |  27.25%| unknown
 10.1s|     1 |     0 |  9811 |     - |   212M |   0 |  19k| 389 | 936 | 714 | 27 | 113 |   0 | 2.295552e+03 | 2.921000e+03 |  27.25%| unknown
 10.3s|     1 |     0 |  9815 |     - |   212M |   0 |  19k| 389 | 937 | 715 | 28 | 113 |   0 | 2.295555e+03 | 2.921000e+03 |  27.25%| unknown
 10.4s|     1 |     0 |  9844 |     - |   212M |   0 |  19k| 389 | 940 | 718 | 30 | 113 |   0 | 2.295708e+03 | 2.921000e+03 |  27.24%| unknown
 10.6s|     1 |     0 |  9891 |     - |   212M |   0 |  19k| 389 | 945 | 723 | 31 | 113 |   0 | 2.295812e+03 | 2.921000e+03 |  27.23%| unknown
 10.7s|     1 |     0 |  9892 |     - |   212M |   0 |  19k| 389 | 946 | 724 | 32 | 113 |   0 | 2.295813e+03 | 2.921000e+03 |  27.23%| unknown
L19.3s|     1 |     0 | 17864 |     - |    rens|   0 |  19k| 406 | 946 | 724 | 34 | 143 |   0 | 2.295813e+03 | 2.345000e+03 |   2.14%| unknown
L19.4s|     1 |     0 | 17864 |     - |    alns|   0 |  19k| 406 | 946 | 724 | 34 | 143 |   0 | 2.295813e+03 | 2.344000e+03 |   2.10%| unknown
 19.4s|     1 |     0 | 17864 |     - |   237M |   0 |  19k| 406 | 946 | 724 | 34 | 143 |   0 | 2.295813e+03 | 2.344000e+03 |   2.10%| unknown
 19.5s|     1 |     0 | 17864 |     - |   237M |   0 |  19k| 406 | 946 | 724 | 34 | 143 |   0 | 2.295813e+03 | 2.344000e+03 |   2.10%| unknown
 19.7s|     1 |     0 | 17890 |     - |   236M |   0 |  19k| 375 | 932 | 728 | 35 | 143 |   0 | 2.295849e+03 | 2.344000e+03 |   2.10%| unknown
 19.7s|     1 |     0 | 17890 |     - |   236M |   0 |  19k| 375 | 932 | 728 | 35 | 143 |   0 | 2.295849e+03 | 2.344000e+03 |   2.10%| unknown
 19.7s|     1 |     0 | 17901 |     - |   236M |   0 |  19k| 375 | 935 | 731 | 36 | 143 |   0 | 2.295892e+03 | 2.344000e+03 |   2.10%| unknown
 19.8s|     1 |     0 | 17901 |     - |   236M |   0 |  19k| 373 | 935 | 731 | 36 | 143 |   0 | 2.295892e+03 | 2.344000e+03 |   2.10%| unknown
(run 1, node 1) restarting after 11139 global fixings of integer variables

(restart) converted 417 cuts from the global cut pool into linear constraints

presolving:
(round 1, fast)       11139 del vars, 62 del conss, 1 add conss, 0 chg bounds, 0 chg sides, 4627 chg coeffs, 0 upgd conss, 0 impls, 8157 clqs
   (19.9s) running MILP presolver
   (19.9s) MILP presolver found nothing
(round 2, medium)     11140 del vars, 65 del conss, 9 add conss, 0 chg bounds, 0 chg sides, 4627 chg coeffs, 0 upgd conss, 0 impls, 8156 clqs
(round 3, medium)     11141 del vars, 99 del conss, 43 add conss, 0 chg bounds, 1 chg sides, 4628 chg coeffs, 0 upgd conss, 0 impls, 8156 clqs
(round 4, exhaustive) 11141 del vars, 101 del conss, 43 add conss, 0 chg bounds, 3 chg sides, 4628 chg coeffs, 0 upgd conss, 0 impls, 8156 clqs
(round 5, exhaustive) 11141 del vars, 101 del conss, 43 add conss, 0 chg bounds, 3 chg sides, 4628 chg coeffs, 449 upgd conss, 0 impls, 8156 clqs
(round 6, fast)       11141 del vars, 101 del conss, 43 add conss, 0 chg bounds, 3 chg sides, 4785 chg coeffs, 449 upgd conss, 0 impls, 8156 clqs
(round 7, medium)     11141 del vars, 335 del conss, 316 add conss, 0 chg bounds, 25 chg sides, 6289 chg coeffs, 449 upgd conss, 0 impls, 8156 clqs
(round 8, fast)       11141 del vars, 355 del conss, 336 add conss, 0 chg bounds, 25 chg sides, 6289 chg coeffs, 449 upgd conss, 0 impls, 8156 clqs
presolving (9 rounds: 9 fast, 6 medium, 3 exhaustive):
 11141 deleted vars, 355 deleted constraints, 336 added constraints, 0 tightened bounds, 0 added holes, 25 changed sides, 6291 changed coefficients
 0 implications, 8156 cliques
presolved problem has 8163 variables (8163 bin, 0 int, 0 impl, 0 cont) and 753 constraints
    173 constraints of type <knapsack>
    560 constraints of type <setppc>
     20 constraints of type <logicor>
transformed objective value is always integral (scale: 1)
Presolving Time: 0.65
transformed 19/23 original solutions to the transformed problem space

 time | node  | left  |LP iter|LP it/n|mem/heur|mdpt |vars |cons |rows |cuts |sepa|confs|strbr|  dualbound   | primalbound  |  gap   | compl. 
 21.1s|     1 |     0 | 21147 |     - |   248M |   0 |8163 | 753 | 721 |   0 |  0 | 143 |   0 | 2.295892e+03 | 2.344000e+03 |   2.10%| unknown
 21.3s|     1 |     0 | 21147 |     - |   248M |   0 |8163 | 753 | 721 |   0 |  0 | 143 |   0 | 2.295892e+03 | 2.344000e+03 |   2.10%| unknown
 22.1s|     1 |     0 | 22555 |     - |   249M |   0 |8163 | 753 | 775 |  54 |  1 | 143 |   0 | 2.295892e+03 | 2.344000e+03 |   2.10%| unknown
 22.1s|     1 |     0 | 22555 |     - |   249M |   0 |8163 | 753 | 775 |  54 |  1 | 143 |   0 | 2.295892e+03 | 2.344000e+03 |   2.10%| unknown
 22.4s|     1 |     0 | 23186 |     - |   249M |   0 |8163 | 753 | 815 |  94 |  2 | 143 |   0 | 2.295892e+03 | 2.344000e+03 |   2.10%| unknown
 22.4s|     1 |     0 | 23186 |     - |   249M |   0 |8163 | 753 | 815 |  94 |  2 | 143 |   0 | 2.295892e+03 | 2.344000e+03 |   2.10%| unknown
 22.7s|     1 |     0 | 23678 |     - |   249M |   0 |8163 | 753 | 855 | 134 |  3 | 143 |   0 | 2.295892e+03 | 2.344000e+03 |   2.10%| unknown
 22.7s|     1 |     0 | 23678 |     - |   249M |   0 |8163 | 753 | 855 | 134 |  3 | 143 |   0 | 2.295892e+03 | 2.344000e+03 |   2.10%| unknown
 22.9s|     1 |     0 | 24068 |     - |   249M |   0 |8163 | 753 | 887 | 166 |  4 | 143 |   0 | 2.295892e+03 | 2.344000e+03 |   2.10%| unknown
 23.0s|     1 |     0 | 24068 |     - |   249M |   0 |8163 | 741 | 887 | 166 |  4 | 143 |   0 | 2.295892e+03 | 2.344000e+03 |   2.10%| unknown
 23.1s|     1 |     0 | 24262 |     - |   249M |   0 |8163 | 741 | 906 | 185 |  5 | 143 |   0 | 2.295892e+03 | 2.344000e+03 |   2.10%| unknown
 23.1s|     1 |     0 | 24262 |     - |   249M |   0 |8163 | 741 | 906 | 185 |  5 | 143 |   0 | 2.295892e+03 | 2.344000e+03 |   2.10%| unknown
 23.2s|     1 |     0 | 24372 |     - |   250M |   0 |8163 | 741 | 923 | 202 |  6 | 143 |   0 | 2.295922e+03 | 2.344000e+03 |   2.09%| unknown
 23.3s|     1 |     0 | 24372 |     - |   250M |   0 |8163 | 741 | 923 | 202 |  6 | 143 |   0 | 2.295922e+03 | 2.344000e+03 |   2.09%| unknown
 23.4s|     1 |     0 | 24427 |     - |   250M |   0 |8163 | 741 | 927 | 206 |  7 | 143 |   0 | 2.296120e+03 | 2.344000e+03 |   2.09%| unknown
 time | node  | left  |LP iter|LP it/n|mem/heur|mdpt |vars |cons |rows |cuts |sepa|confs|strbr|  dualbound   | primalbound  |  gap   | compl. 
 23.5s|     1 |     0 | 24427 |     - |   250M |   0 |8163 | 741 | 927 | 206 |  7 | 143 |   0 | 2.296120e+03 | 2.344000e+03 |   2.09%| unknown
 23.6s|     1 |     0 | 24521 |     - |   250M |   0 |8163 | 741 | 936 | 215 |  8 | 143 |   0 | 2.296310e+03 | 2.344000e+03 |   2.08%| unknown
 23.7s|     1 |     0 | 24521 |     - |   250M |   0 |8163 | 741 | 936 | 215 |  8 | 143 |   0 | 2.296310e+03 | 2.344000e+03 |   2.08%| unknown
 23.8s|     1 |     0 | 24553 |     - |   250M |   0 |8163 | 741 | 939 | 218 |  9 | 143 |   0 | 2.296408e+03 | 2.344000e+03 |   2.07%| unknown
 23.8s|     1 |     0 | 24553 |     - |   250M |   0 |8163 | 741 | 939 | 218 |  9 | 143 |   0 | 2.296408e+03 | 2.344000e+03 |   2.07%| unknown
 24.0s|     1 |     0 | 24679 |     - |   250M |   0 |8163 | 741 | 941 | 220 | 10 | 143 |   0 | 2.296686e+03 | 2.344000e+03 |   2.06%| unknown
 24.0s|     1 |     0 | 24679 |     - |   250M |   0 |8163 | 741 | 941 | 220 | 10 | 143 |   0 | 2.296686e+03 | 2.344000e+03 |   2.06%| unknown
 24.1s|     1 |     0 | 24756 |     - |   250M |   0 |8163 | 741 | 945 | 224 | 11 | 143 |   0 | 2.296812e+03 | 2.344000e+03 |   2.05%| unknown
 24.2s|     1 |     0 | 24756 |     - |   250M |   0 |8163 | 741 | 945 | 224 | 11 | 143 |   0 | 2.296812e+03 | 2.344000e+03 |   2.05%| unknown
 24.3s|     1 |     0 | 24891 |     - |   250M |   0 |8163 | 741 | 949 | 228 | 12 | 143 |   0 | 2.297039e+03 | 2.344000e+03 |   2.04%| unknown
 24.3s|     1 |     0 | 24891 |     - |   250M |   0 |8163 | 741 | 949 | 228 | 12 | 143 |   0 | 2.297039e+03 | 2.344000e+03 |   2.04%| unknown
 24.4s|     1 |     0 | 25050 |     - |   250M |   0 |8163 | 741 | 954 | 233 | 13 | 143 |   0 | 2.297464e+03 | 2.344000e+03 |   2.03%| unknown
 24.5s|     1 |     0 | 25050 |     - |   250M |   0 |8163 | 741 | 954 | 233 | 13 | 143 |   0 | 2.297464e+03 | 2.344000e+03 |   2.03%| unknown
 24.6s|     1 |     0 | 25078 |     - |   250M |   0 |8163 | 741 | 959 | 238 | 14 | 143 |   0 | 2.297481e+03 | 2.344000e+03 |   2.02%| unknown
 24.6s|     1 |     0 | 25078 |     - |   250M |   0 |8163 | 741 | 959 | 238 | 14 | 143 |   0 | 2.297481e+03 | 2.344000e+03 |   2.02%| unknown
 time | node  | left  |LP iter|LP it/n|mem/heur|mdpt |vars |cons |rows |cuts |sepa|confs|strbr|  dualbound   | primalbound  |  gap   | compl. 
 24.7s|     1 |     0 | 25179 |     - |   250M |   0 |8163 | 741 | 965 | 244 | 15 | 143 |   0 | 2.297558e+03 | 2.344000e+03 |   2.02%| unknown
 24.7s|     1 |     0 | 25179 |     - |   250M |   0 |8163 | 741 | 965 | 244 | 15 | 143 |   0 | 2.297558e+03 | 2.344000e+03 |   2.02%| unknown
 24.8s|     1 |     0 | 25280 |     - |   251M |   0 |8163 | 741 | 904 | 248 | 16 | 143 |   0 | 2.297732e+03 | 2.344000e+03 |   2.01%| unknown
 24.8s|     1 |     0 | 25280 |     - |   251M |   0 |8163 | 741 | 904 | 248 | 16 | 143 |   0 | 2.297732e+03 | 2.344000e+03 |   2.01%| unknown
 24.9s|     1 |     0 | 25285 |     - |   251M |   0 |8163 | 741 | 905 | 249 | 17 | 143 |   0 | 2.297736e+03 | 2.344000e+03 |   2.01%| unknown
 24.9s|     1 |     0 | 25285 |     - |   251M |   0 |8163 | 741 | 905 | 249 | 17 | 143 |   0 | 2.297736e+03 | 2.344000e+03 |   2.01%| unknown
 25.0s|     1 |     0 | 25315 |     - |   251M |   0 |8163 | 740 | 907 | 251 | 18 | 143 |   0 | 2.297787e+03 | 2.344000e+03 |   2.01%| unknown
 25.0s|     1 |     0 | 25315 |     - |   251M |   0 |8163 | 740 | 907 | 251 | 18 | 143 |   0 | 2.297787e+03 | 2.344000e+03 |   2.01%| unknown
 25.1s|     1 |     0 | 25337 |     - |   251M |   0 |8163 | 739 | 911 | 255 | 19 | 143 |   0 | 2.297807e+03 | 2.344000e+03 |   2.01%| unknown
 25.1s|     1 |     0 | 25337 |     - |   251M |   0 |8163 | 739 | 911 | 255 | 19 | 143 |   0 | 2.297807e+03 | 2.344000e+03 |   2.01%| unknown
 25.3s|     1 |     0 | 25450 |     - |   251M |   0 |8163 | 737 | 917 | 261 | 20 | 143 |   0 | 2.297878e+03 | 2.344000e+03 |   2.01%| unknown
 25.3s|     1 |     0 | 25450 |     - |   251M |   0 |8163 | 737 | 917 | 261 | 20 | 143 |   0 | 2.297878e+03 | 2.344000e+03 |   2.01%| unknown
 25.3s|     1 |     0 | 25456 |     - |   251M |   0 |8163 | 736 | 919 | 263 | 21 | 143 |   0 | 2.297882e+03 | 2.344000e+03 |   2.01%| unknown
 25.4s|     1 |     0 | 25456 |     - |   251M |   0 |8163 | 736 | 919 | 263 | 21 | 143 |   0 | 2.297882e+03 | 2.344000e+03 |   2.01%| unknown
 25.5s|     1 |     0 | 25571 |     - |   251M |   0 |8163 | 735 | 895 | 265 | 22 | 143 |   0 | 2.298020e+03 | 2.344000e+03 |   2.00%| unknown
 time | node  | left  |LP iter|LP it/n|mem/heur|mdpt |vars |cons |rows |cuts |sepa|confs|strbr|  dualbound   | primalbound  |  gap   | compl. 
 25.5s|     1 |     0 | 25571 |     - |   251M |   0 |8163 | 735 | 895 | 265 | 22 | 143 |   0 | 2.298020e+03 | 2.344000e+03 |   2.00%| unknown
 25.6s|     1 |     0 | 25596 |     - |   251M |   0 |8163 | 734 | 903 | 273 | 23 | 143 |   0 | 2.298046e+03 | 2.344000e+03 |   2.00%| unknown
 25.6s|     1 |     0 | 25596 |     - |   251M |   0 |8163 | 734 | 903 | 273 | 23 | 143 |   0 | 2.298046e+03 | 2.344000e+03 |   2.00%| unknown
(run 2, node 1) restarting after 1257 global fixings of integer variables

(restart) converted 187 cuts from the global cut pool into linear constraints

presolving:
(round 1, fast)       1257 del vars, 12 del conss, 0 add conss, 0 chg bounds, 0 chg sides, 111 chg coeffs, 0 upgd conss, 0 impls, 6906 clqs
   (28.5s) running MILP presolver
   (28.6s) MILP presolver found nothing
(round 2, medium)     1257 del vars, 19 del conss, 35 add conss, 0 chg bounds, 0 chg sides, 111 chg coeffs, 0 upgd conss, 0 impls, 6906 clqs
(round 3, exhaustive) 1257 del vars, 19 del conss, 35 add conss, 0 chg bounds, 0 chg sides, 111 chg coeffs, 187 upgd conss, 0 impls, 6906 clqs
(round 4, fast)       1257 del vars, 20 del conss, 35 add conss, 0 chg bounds, 0 chg sides, 134 chg coeffs, 187 upgd conss, 0 impls, 6906 clqs
(round 5, medium)     1257 del vars, 31 del conss, 46 add conss, 0 chg bounds, 4 chg sides, 142 chg coeffs, 187 upgd conss, 0 impls, 6906 clqs
presolving (6 rounds: 6 fast, 4 medium, 2 exhaustive):
 1257 deleted vars, 31 deleted constraints, 46 added constraints, 0 tightened bounds, 0 added holes, 4 changed sides, 142 changed coefficients
 0 implications, 6906 cliques
presolved problem has 6906 variables (6906 bin, 0 int, 0 impl, 0 cont) and 927 constraints
    201 constraints of type <knapsack>
    716 constraints of type <setppc>
     10 constraints of type <logicor>
transformed objective value is always integral (scale: 1)
Presolving Time: 0.84
transformed 20/24 original solutions to the transformed problem space

 time | node  | left  |LP iter|LP it/n|mem/heur|mdpt |vars |cons |rows |cuts |sepa|confs|strbr|  dualbound   | primalbound  |  gap   | compl. 
 30.0s|     1 |     0 | 37298 |     - |   253M |   0 |6906 | 927 | 917 |   0 |  0 | 153 |   0 | 2.298046e+03 | 2.344000e+03 |   2.00%| unknown
 30.0s|     1 |     0 | 37298 |     - |   253M |   0 |6906 | 927 | 907 |   0 |  0 | 153 |   0 | 2.298046e+03 | 2.344000e+03 |   2.00%| unknown
 30.3s|     1 |     0 | 37480 |     - |   254M |   0 |6906 | 917 | 923 |  16 |  1 | 153 |   0 | 2.298046e+03 | 2.344000e+03 |   2.00%| unknown
 30.4s|     1 |     0 | 37480 |     - |   254M |   0 |6906 | 917 | 923 |  16 |  1 | 153 |   0 | 2.298046e+03 | 2.344000e+03 |   2.00%| unknown
 30.6s|     1 |     0 | 37734 |     - |   254M |   0 |6906 | 917 | 931 |  24 |  2 | 153 |   0 | 2.298139e+03 | 2.344000e+03 |   2.00%| unknown
 30.6s|     1 |     0 | 37734 |     - |   254M |   0 |6906 | 917 | 931 |  24 |  2 | 153 |   0 | 2.298139e+03 | 2.344000e+03 |   2.00%| unknown
 30.7s|     1 |     0 | 37754 |     - |   254M |   0 |6906 | 917 | 935 |  28 |  3 | 153 |   0 | 2.298149e+03 | 2.344000e+03 |   2.00%| unknown
 30.8s|     1 |     0 | 37754 |     - |   254M |   0 |6906 | 917 | 935 |  28 |  3 | 153 |   0 | 2.298149e+03 | 2.344000e+03 |   2.00%| unknown
 30.9s|     1 |     0 | 37782 |     - |   254M |   0 |6906 | 917 | 938 |  31 |  4 | 153 |   0 | 2.298160e+03 | 2.344000e+03 |   1.99%| unknown
 31.0s|     1 |     0 | 37782 |     - |   254M |   0 |6906 | 917 | 938 |  31 |  4 | 153 |   0 | 2.298160e+03 | 2.344000e+03 |   1.99%| unknown
 31.1s|     1 |     0 | 37822 |     - |   254M |   0 |6906 | 917 | 941 |  34 |  5 | 153 |   0 | 2.298196e+03 | 2.344000e+03 |   1.99%| unknown
 31.1s|     1 |     0 | 37822 |     - |   254M |   0 |6906 | 917 | 941 |  34 |  5 | 153 |   0 | 2.298196e+03 | 2.344000e+03 |   1.99%| unknown
 31.3s|     1 |     0 | 37878 |     - |   254M |   0 |6906 | 917 | 944 |  37 |  6 | 153 |   0 | 2.298260e+03 | 2.344000e+03 |   1.99%| unknown
 31.3s|     1 |     0 | 37878 |     - |   255M |   0 |6906 | 917 | 944 |  37 |  6 | 153 |   0 | 2.298260e+03 | 2.344000e+03 |   1.99%| unknown
 31.5s|     1 |     0 | 37945 |     - |   255M |   0 |6906 | 917 | 948 |  41 |  7 | 153 |   0 | 2.298413e+03 | 2.344000e+03 |   1.98%| unknown
 time | node  | left  |LP iter|LP it/n|mem/heur|mdpt |vars |cons |rows |cuts |sepa|confs|strbr|  dualbound   | primalbound  |  gap   | compl. 
 31.5s|     1 |     0 | 37945 |     - |   255M |   0 |6906 | 917 | 947 |  41 |  7 | 153 |   0 | 2.298413e+03 | 2.344000e+03 |   1.98%| unknown
 31.7s|     1 |     0 | 37973 |     - |   255M |   0 |6906 | 916 | 950 |  44 |  8 | 153 |   0 | 2.298418e+03 | 2.344000e+03 |   1.98%| unknown
 31.7s|     1 |     0 | 37973 |     - |   255M |   0 |6906 | 916 | 950 |  44 |  8 | 153 |   0 | 2.298418e+03 | 2.344000e+03 |   1.98%| unknown
 31.8s|     1 |     0 | 37989 |     - |   255M |   0 |6906 | 916 | 952 |  46 |  9 | 153 |   0 | 2.298438e+03 | 2.344000e+03 |   1.98%| unknown
 31.9s|     1 |     0 | 37989 |     - |   255M |   0 |6906 | 916 | 952 |  46 |  9 | 153 |   0 | 2.298438e+03 | 2.344000e+03 |   1.98%| unknown
 32.0s|     1 |     0 | 38044 |     - |   255M |   0 |6906 | 916 | 954 |  48 | 10 | 153 |   0 | 2.298478e+03 | 2.344000e+03 |   1.98%| unknown
 32.0s|     1 |     0 | 38044 |     - |   255M |   0 |6906 | 916 | 954 |  48 | 10 | 153 |   0 | 2.298478e+03 | 2.344000e+03 |   1.98%| unknown
 32.1s|     1 |     0 | 38074 |     - |   255M |   0 |6906 | 916 | 958 |  52 | 11 | 153 |   0 | 2.298492e+03 | 2.344000e+03 |   1.98%| unknown
 32.1s|     1 |     0 | 38074 |     - |   255M |   0 |6906 | 916 | 958 |  52 | 11 | 153 |   0 | 2.298492e+03 | 2.344000e+03 |   1.98%| unknown
 32.2s|     1 |     0 | 38076 |     - |   255M |   0 |6906 | 916 | 960 |  54 | 12 | 153 |   0 | 2.298492e+03 | 2.344000e+03 |   1.98%| unknown
 32.2s|     1 |     0 | 38076 |     - |   255M |   0 |6906 | 916 | 960 |  54 | 12 | 153 |   0 | 2.298492e+03 | 2.344000e+03 |   1.98%| unknown
(run 3, node 1) restarting after 694 global fixings of integer variables

(restart) converted 47 cuts from the global cut pool into linear constraints

presolving:
(round 1, fast)       694 del vars, 0 del conss, 0 add conss, 0 chg bounds, 0 chg sides, 44 chg coeffs, 0 upgd conss, 0 impls, 6219 clqs
(round 2, medium)     694 del vars, 11 del conss, 41 add conss, 0 chg bounds, 2 chg sides, 48 chg coeffs, 0 upgd conss, 0 impls, 6219 clqs
(round 3, exhaustive) 694 del vars, 11 del conss, 41 add conss, 0 chg bounds, 2 chg sides, 48 chg coeffs, 47 upgd conss, 0 impls, 6219 clqs
(round 4, medium)     694 del vars, 12 del conss, 42 add conss, 0 chg bounds, 6 chg sides, 56 chg coeffs, 47 upgd conss, 0 impls, 6219 clqs
presolving (5 rounds: 5 fast, 4 medium, 2 exhaustive):
 694 deleted vars, 12 deleted constraints, 42 added constraints, 0 tightened bounds, 0 added holes, 6 changed sides, 57 changed coefficients
 0 implications, 6219 cliques
presolved problem has 6212 variables (6212 bin, 0 int, 0 impl, 0 cont) and 962 constraints
    217 constraints of type <knapsack>
    735 constraints of type <setppc>
     10 constraints of type <logicor>
transformed objective value is always integral (scale: 1)
Presolving Time: 1.04
transformed 21/25 original solutions to the transformed problem space

 time | node  | left  |LP iter|LP it/n|mem/heur|mdpt |vars |cons |rows |cuts |sepa|confs|strbr|  dualbound   | primalbound  |  gap   | compl. 
 35.8s|     1 |     0 | 47363 |     - |   256M |   0 |6212 | 962 | 952 |   0 |  0 | 153 |   0 | 2.298492e+03 | 2.344000e+03 |   1.98%| unknown
 35.9s|     1 |     0 | 47363 |     - |   256M |   0 |6212 | 962 | 943 |   0 |  0 | 153 |   0 | 2.298492e+03 | 2.344000e+03 |   1.98%| unknown
 36.1s|     1 |     0 | 47719 |     - |   257M |   0 |6212 | 953 | 954 |  11 |  1 | 153 |   0 | 2.298492e+03 | 2.344000e+03 |   1.98%| unknown
 36.2s|     1 |     0 | 47719 |     - |   257M |   0 |6212 | 953 | 954 |  11 |  1 | 153 |   0 | 2.298492e+03 | 2.344000e+03 |   1.98%| unknown
 36.3s|     1 |     0 | 47760 |     - |   257M |   0 |6212 | 953 | 958 |  15 |  2 | 153 |   0 | 2.298492e+03 | 2.344000e+03 |   1.98%| unknown
 36.3s|     1 |     0 | 47760 |     - |   257M |   0 |6212 | 953 | 958 |  15 |  2 | 153 |   0 | 2.298492e+03 | 2.344000e+03 |   1.98%| unknown
 36.4s|     1 |     0 | 47792 |     - |   257M |   0 |6212 | 953 | 960 |  17 |  3 | 153 |   0 | 2.298492e+03 | 2.344000e+03 |   1.98%| unknown
 36.5s|     1 |     0 | 47792 |     - |   257M |   0 |6212 | 953 | 960 |  17 |  3 | 153 |   0 | 2.298492e+03 | 2.344000e+03 |   1.98%| unknown
 36.6s|     1 |     0 | 47823 |     - |   257M |   0 |6212 | 953 | 964 |  21 |  4 | 153 |   0 | 2.298492e+03 | 2.344000e+03 |   1.98%| unknown
 36.7s|     1 |     0 | 47889 |     - |   257M |   0 |6212 | 953 | 969 |  26 |  5 | 153 |   0 | 2.298492e+03 | 2.344000e+03 |   1.98%| unknown
 36.8s|     1 |     0 | 47889 |     - |   257M |   0 |6212 | 953 | 969 |  26 |  5 | 153 |   0 | 2.298492e+03 | 2.344000e+03 |   1.98%| unknown
 36.9s|     1 |     0 | 47939 |     - |   257M |   0 |6212 | 953 | 970 |  27 |  6 | 153 |   0 | 2.298492e+03 | 2.344000e+03 |   1.98%| unknown
 36.9s|     1 |     0 | 47939 |     - |   257M |   0 |6212 | 953 | 970 |  27 |  6 | 153 |   0 | 2.298492e+03 | 2.344000e+03 |   1.98%| unknown
 37.0s|     1 |     0 | 47968 |     - |   257M |   0 |6212 | 953 | 972 |  29 |  7 | 153 |   0 | 2.298492e+03 | 2.344000e+03 |   1.98%| unknown
 37.1s|     1 |     0 | 48001 |     - |   257M |   0 |6212 | 953 | 977 |  34 |  8 | 153 |   0 | 2.298495e+03 | 2.344000e+03 |   1.98%| unknown
 time | node  | left  |LP iter|LP it/n|mem/heur|mdpt |vars |cons |rows |cuts |sepa|confs|strbr|  dualbound   | primalbound  |  gap   | compl. 
 37.2s|     1 |     0 | 48001 |     - |   257M |   0 |6212 | 953 | 977 |  34 |  8 | 153 |   0 | 2.298495e+03 | 2.344000e+03 |   1.98%| unknown
 37.3s|     1 |     0 | 48118 |     - |   258M |   0 |6212 | 953 | 982 |  39 |  9 | 153 |   0 | 2.298555e+03 | 2.344000e+03 |   1.98%| unknown
 37.3s|     1 |     0 | 48118 |     - |   258M |   0 |6212 | 953 | 982 |  39 |  9 | 153 |   0 | 2.298555e+03 | 2.344000e+03 |   1.98%| unknown
 37.4s|     1 |     0 | 48148 |     - |   258M |   0 |6212 | 953 | 984 |  41 | 10 | 153 |   0 | 2.298570e+03 | 2.344000e+03 |   1.98%| unknown
 37.5s|     1 |     0 | 48148 |     - |   258M |   0 |6212 | 953 | 984 |  41 | 10 | 153 |   0 | 2.298570e+03 | 2.344000e+03 |   1.98%| unknown
 37.6s|     1 |     0 | 48198 |     - |   258M |   0 |6212 | 953 | 986 |  43 | 11 | 153 |   0 | 2.298582e+03 | 2.344000e+03 |   1.98%| unknown
 42.6s|     1 |     2 | 50193 |     - |   258M |   0 |6212 | 915 | 986 |  43 | 11 | 153 |  20 | 2.300289e+03 | 2.344000e+03 |   1.90%| unknown
(run 4, node 1) restarting after 272 global fixings of integer variables

(restart) converted 40 cuts from the global cut pool into linear constraints

presolving:
(round 1, fast)       272 del vars, 0 del conss, 0 add conss, 0 chg bounds, 0 chg sides, 24 chg coeffs, 0 upgd conss, 0 impls, 5951 clqs
(round 2, medium)     272 del vars, 8 del conss, 21 add conss, 0 chg bounds, 0 chg sides, 24 chg coeffs, 0 upgd conss, 0 impls, 5951 clqs
(round 3, exhaustive) 272 del vars, 8 del conss, 21 add conss, 0 chg bounds, 0 chg sides, 24 chg coeffs, 40 upgd conss, 0 impls, 5951 clqs
(round 4, medium)     272 del vars, 9 del conss, 22 add conss, 0 chg bounds, 4 chg sides, 32 chg coeffs, 40 upgd conss, 0 impls, 5951 clqs
presolving (5 rounds: 5 fast, 4 medium, 2 exhaustive):
 272 deleted vars, 9 deleted constraints, 22 added constraints, 0 tightened bounds, 0 added holes, 4 changed sides, 32 changed coefficients
 0 implications, 5951 cliques
presolved problem has 5940 variables (5940 bin, 0 int, 0 impl, 0 cont) and 968 constraints
    247 constraints of type <knapsack>
    711 constraints of type <setppc>
     10 constraints of type <logicor>
transformed objective value is always integral (scale: 1)
Presolving Time: 1.26
transformed 22/26 original solutions to the transformed problem space

 time | node  | left  |LP iter|LP it/n|mem/heur|mdpt |vars |cons |rows |cuts |sepa|confs|strbr|  dualbound   | primalbound  |  gap   | compl. 
 44.6s|     1 |     0 | 58911 |     - |   260M |   0 |5940 | 968 | 958 |   0 |  0 | 153 |  20 | 2.300289e+03 | 2.344000e+03 |   1.90%| unknown
 44.7s|     1 |     0 | 58911 |     - |   260M |   0 |5940 | 968 | 958 |   0 |  0 | 153 |  20 | 2.300289e+03 | 2.344000e+03 |   1.90%| unknown
 45.0s|     1 |     0 | 59469 |     - |   261M |   0 |5940 | 968 | 969 |  11 |  1 | 153 |  20 | 2.300289e+03 | 2.344000e+03 |   1.90%| unknown
 45.0s|     1 |     0 | 59469 |     - |   261M |   0 |5940 | 968 | 969 |  11 |  1 | 153 |  20 | 2.300289e+03 | 2.344000e+03 |   1.90%| unknown
 45.1s|     1 |     0 | 59503 |     - |   261M |   0 |5940 | 968 | 970 |  12 |  2 | 153 |  20 | 2.300289e+03 | 2.344000e+03 |   1.90%| unknown
 45.1s|     1 |     0 | 59503 |     - |   261M |   0 |5940 | 968 | 970 |  12 |  2 | 153 |  20 | 2.300289e+03 | 2.344000e+03 |   1.90%| unknown
 45.2s|     1 |     0 | 59535 |     - |   261M |   0 |5940 | 968 | 971 |  13 |  3 | 153 |  20 | 2.300289e+03 | 2.344000e+03 |   1.90%| unknown
 45.3s|     1 |     0 | 59535 |     - |   261M |   0 |5940 | 968 | 971 |  13 |  3 | 153 |  20 | 2.300289e+03 | 2.344000e+03 |   1.90%| unknown
 45.4s|     1 |     0 | 59555 |     - |   261M |   0 |5940 | 968 | 975 |  17 |  4 | 153 |  20 | 2.300289e+03 | 2.344000e+03 |   1.90%| unknown
 45.4s|     1 |     0 | 59555 |     - |   261M |   0 |5940 | 968 | 975 |  17 |  4 | 153 |  20 | 2.300289e+03 | 2.344000e+03 |   1.90%| unknown
 45.5s|     1 |     0 | 59570 |     - |   262M |   0 |5940 | 968 | 976 |  18 |  5 | 153 |  20 | 2.300289e+03 | 2.344000e+03 |   1.90%| unknown
 51.1s|     1 |     2 | 65506 |     - |   262M |   0 |5940 | 957 | 976 |  18 |  7 | 163 |  39 | 2.300925e+03 | 2.344000e+03 |   1.87%| unknown
r79.5s|    16 |    11 | 71283 |1545.5 |rounding|  12 |5940 | 969 | 878 | 220 |  0 | 175 | 445 | 2.303605e+03 | 2.340000e+03 |   1.58%| unknown
r79.5s|    17 |    12 | 71305 |1469.3 |rounding|  13 |5940 | 969 | 878 | 220 |  0 | 175 | 445 | 2.303605e+03 | 2.339000e+03 |   1.54%| unknown
 80.9s|   100 |    27 | 74553 | 316.8 |   265M |  30 |5940 | 978 | 902 | 315 |  2 | 184 | 454 | 2.303605e+03 | 2.339000e+03 |   1.54%|   5.47%
 time | node  | left  |LP iter|LP it/n|mem/heur|mdpt |vars |cons |rows |cuts |sepa|confs|strbr|  dualbound   | primalbound  |  gap   | compl. 
*81.9s|   186 |    30 | 76792 | 184.5 |    LP  |  40 |5940 |1015 | 905 | 327 |  3 | 221 | 488 | 2.303605e+03 | 2.338000e+03 |   1.49%|   6.23%
*82.0s|   187 |    23 | 76847 | 183.8 |strongbr|  40 |5940 |1015 | 905 | 328 |  4 | 221 | 489 | 2.303605e+03 | 2.337000e+03 |   1.45%|   6.68%
 83.5s|   200 |    26 | 79991 | 187.6 |   269M |  40 |5940 |1015 | 892 | 396 |  0 | 221 | 500 | 2.304805e+03 | 2.337000e+03 |   1.40%|   8.07%
 87.5s|   300 |    44 | 89522 | 157.1 |   270M |  40 |5940 |1070 | 902 | 572 |  0 | 276 | 537 | 2.305368e+03 | 2.337000e+03 |   1.37%|   9.67%
r89.2s|   335 |    48 | 95163 | 157.5 |rounding|  40 |5940 |1086 | 902 | 631 |  0 | 292 | 545 | 2.305492e+03 | 2.336000e+03 |   1.32%|  15.26%
 90.1s|   400 |    49 | 96438 | 135.3 |   271M |  40 |5940 |1143 | 902 | 631 |  0 | 349 | 592 | 2.305492e+03 | 2.336000e+03 |   1.32%|  15.80%
 94.6s|   500 |    81 |106329 | 128.1 |   272M |  40 |5940 |1236 | 902 | 754 |  0 | 442 | 642 | 2.306370e+03 | 2.336000e+03 |   1.28%|  17.85%
*94.7s|   507 |    69 |106397 | 126.4 |    LP  |  40 |5940 |1236 | 902 | 754 |  1 | 442 | 642 | 2.306370e+03 | 2.335000e+03 |   1.24%|  18.28%
 97.3s|   600 |   114 |111250 | 115.0 |   274M |  40 |5940 |1246 | 901 | 843 |  1 | 452 | 667 | 2.306370e+03 | 2.335000e+03 |   1.24%|  18.82%
*98.3s|   635 |    62 |113960 | 112.9 |    LP  |  40 |5940 |1277 | 901 | 847 |  2 | 483 | 698 | 2.306370e+03 | 2.327000e+03 |   0.89%|  20.59%
*98.4s|   637 |    49 |114009 | 112.6 |    LP  |  40 |5940 |1277 | 901 | 847 |  2 | 483 | 698 | 2.306370e+03 | 2.326000e+03 |   0.85%|  21.66%
*99.2s|   646 |    37 |115254 | 113.0 |    LP  |  40 |5940 |1297 | 918 | 907 | 18 | 503 | 715 | 2.306370e+03 | 2.325000e+03 |   0.81%|  24.50%
o 101s|   684 |    51 |120449 | 114.3 |rootsold|  40 |5940 |1297 | 877 |1023 |  1 | 503 | 726 | 2.306370e+03 | 2.324000e+03 |   0.76%|  30.83%
* 102s|   688 |    32 |120546 | 113.8 |    LP  |  40 |5940 |1297 | 877 |1023 |  2 | 503 | 726 | 2.306370e+03 | 2.323000e+03 |   0.72%|  36.43%
  102s|   700 |    38 |122268 | 114.3 |   278M |  40 |5940 |1297 | 872 |1049 |  1 | 503 | 736 | 2.306370e+03 | 2.323000e+03 |   0.72%|  37.30%
 time | node  | left  |LP iter|LP it/n|mem/heur|mdpt |vars |cons |rows |cuts |sepa|confs|strbr|  dualbound   | primalbound  |  gap   | compl. 
* 103s|   723 |    41 |124747 | 114.1 |    LP  |  40 |5940 |1306 | 872 |1051 |  2 | 512 | 751 | 2.306819e+03 | 2.322000e+03 |   0.66%|  40.80%
r 103s|   731 |    38 |124905 | 113.1 |rounding|  40 |5940 |1316 | 872 |1051 |  0 | 522 | 751 | 2.306819e+03 | 2.321000e+03 |   0.61%|  44.82%
* 103s|   734 |    34 |124929 | 112.6 |    LP  |  40 |5940 |1316 | 872 |1051 |  1 | 522 | 751 | 2.306819e+03 | 2.320000e+03 |   0.57%|  44.97%
  105s|   800 |    34 |129395 | 108.9 |   280M |  40 |5940 |1323 | 892 |1122 |  2 | 529 | 763 | 2.307585e+03 | 2.320000e+03 |   0.54%|  57.17%
r 105s|   810 |    28 |129427 | 107.6 |rounding|  40 |5940 |1323 | 892 |1122 |  0 | 529 | 763 | 2.307585e+03 | 2.319000e+03 |   0.49%|  57.73%
r 107s|   857 |    17 |134163 | 107.3 |rounding|  40 |5940 |1351 | 884 |1189 |  3 | 557 | 790 | 2.307769e+03 | 2.315000e+03 |   0.31%|  70.97%

SCIP Status        : problem is solved [optimal solution found]
Solving Time (sec) : 108.79
Solving Nodes      : 884 (total of 888 nodes in 5 runs)
Primal Bound       : +2.31500000000000e+03 (57 solutions)
Dual Bound         : +2.31500000000000e+03
Gap                : 0.00 %
Solve Status: optimal
Solve Time: 108.79 seconds
